minizinc/instance_medium.dzn
% instance_medium.dzn
n_clients = 25;
n_hubs = 10;
d_max = 15;
P_min = 2;
P = 5;

q = [3, 2, 4, 3, 2, 5, 1, 4, 3, 2, 4, 3, 2, 5, 2, 3, 1, 4, 2, 3, 4, 2, 1, 5, 3];
w = [1.2, 1.5, 1.0, 2.0, 1.1, 1.4, 1.0, 1.8, 1.3, 1.5, 1.2, 1.1, 1.6, 1.0, 1.4, 1.9, 1.1, 1.3, 1.7, 1.2, 1.0, 1.5, 1.3, 1.6, 1.4];
f = [45.0, 50.0, 40.0, 55.0, 48.0, 52.0, 42.0, 47.0, 51.0, 44.0];
o = [0.9, 1.1, 0.8, 1.3, 1.0, 1.2, 0.7, 1.1, 1.2, 0.9];
L = [15, 18, 15, 20, 16, 18, 14, 17, 19, 15];

d = [| 4, 8, 11, 14, 7, 9, 12, 5, 10, 6
     | 12, 5, 9, 7, 11, 13, 6, 8, 4, 10
     | 8, 11, 4, 10, 5, 7, 14, 9, 6, 12
     | 7, 9, 12, 5, 10, 6, 8, 11, 13, 4
     | 11, 13, 6, 8, 4, 10, 5, 7, 14, 9
     | 5, 10, 6, 8, 11, 13, 4, 12, 9, 7
     | 9, 6, 12, 11, 13, 4, 10, 5, 7, 14
     | 13, 4, 10, 5, 7, 14, 9, 6, 12, 11
     | 6, 12, 11, 13, 4, 10, 5, 7, 14, 9
     | 10, 5, 7, 14, 9, 6, 12, 11, 13, 4
     | 4, 9, 12, 6, 11, 5, 14, 7, 10, 8
     | 11, 6, 7, 13, 5, 10, 8, 4, 12, 14
     | 7, 14, 5, 8, 10, 12, 4, 9, 11, 6
     | 13, 5, 10, 4, 9, 14, 7, 11, 6, 8
     | 8, 10, 14, 11, 6, 7, 12, 13, 4, 5
     | 5, 11, 8, 12, 14, 6, 9, 10, 7, 13
     | 14, 7, 6, 9, 12, 8, 11, 13, 5, 4
     | 9, 13, 4, 7, 8, 11, 5, 14, 12, 6
     | 6, 8, 11, 14, 7, 9, 13, 5, 4, 10
     | 12, 4, 13, 5, 14, 10, 8, 6, 9, 11
     | 10, 12, 5, 9, 4, 13, 7, 8, 11, 6
     | 7, 5, 14, 10, 9, 8, 11, 12, 6, 13
     | 14, 11, 9, 6, 13, 12, 5, 4, 8, 7
     | 8, 13, 7, 12, 5, 4, 9, 10, 14, 11
     | 11, 7, 10, 4, 12, 14, 6, 13, 8, 5 |];